\ LP format - for model browsing. Use MPS format to capture full model detail.
Minimize
  47 y_1 + 24 y_2 + 41 y_3 + 14 y_4 + 26 y_5 + 23 y_6 + 19 y_7 + 11 y_8
   + 18 y_9 + 33 y_10 + 13 y_11 + 46 y_12 + 20 y_13 + 32 y_14 + 41 y_15
   + 39 y_16 + 36 y_17 + 41 y_18 + 48 y_19 + 40 y_20 + 220 x_1 + 220 x_2
   + 220 x_3 + 220 x_4 + 220 x_5 + 220 x_6 + 220 x_7 + 220 x_8 + 220 x_9
   + 220 x_10 + 220 x_11 + 220 x_12 + 220 x_13 + 220 x_14 + 220 x_15
   + 220 x_16 + 220 x_17 + 220 x_18 + 220 x_19 + 220 x_20 + 220 x_21
   + 220 x_22 + 220 x_23 + 220 x_24 + 220 x_25 + 220 x_26 + 220 x_27
   + 220 x_28 + 220 x_29 + 220 x_30 + 220 x_31 + 220 x_32 + 220 x_33
   + 220 x_34 + 220 x_35 + 220 x_36 + 220 x_37 + 220 x_38 + 220 x_39
   + 220 x_40 + 220 x_41 + 220 x_42 + 220 x_43 + 220 x_44 + 220 x_45
   + 220 x_46 + 220 x_47 + 220 x_48 + 220 x_49 + 220 x_50 + 220 x_51
   + 220 x_52 + 220 x_53 + 220 x_54 + 220 x_55 + 220 x_56 + 220 x_57
   + 220 x_58 + 220 x_59 + 220 x_60 + 220 x_61 + 220 x_62 + 220 x_63
   + 220 x_64 + 220 x_65 + 220 x_66 + 220 x_67 + 220 x_68 + 220 x_69
   + 220 x_70 + 220 x_71 + 220 x_72 + 220 x_73 + 220 x_74 + 220 x_75
   + 220 x_76 + 220 x_77 + 220 x_78 + 220 x_79 + 220 x_80 + 220 x_81
   + 220 x_82 + 220 x_83 + 220 x_84 + 220 x_85 + 220 x_86 + 220 x_87
   + 220 x_88 + 220 x_89 + 220 x_90 + 220 x_91 + 220 x_92 + 220 x_93
   + 220 x_94 + 220 x_95 + 220 x_96 + 220 x_97 + 220 x_98 + 220 x_99
   + 220 x_100 + 220 x_101 + 220 x_102 + 220 x_103 + 220 x_104 + 220 x_105
   + 220 x_106 + 220 x_107 + 220 x_108 + 220 x_109 + 220 x_110 + 220 x_111
   + 220 x_112 + 220 x_113 + 220 x_114 + 220 x_115
Subject To
 constraint1_1: y_1 + x_1 + x_23 + x_24 + x_29 + x_30 + x_32 + x_33 + x_39
   + x_48 + x_49 + x_51 + x_52 + x_55 + x_64 + x_68 + x_79 + x_80 + x_88
   + x_90 + x_92 + x_94 + x_96 + x_97 + x_98 + x_100 + x_101 + x_107
   + x_108 + x_109 + x_111 + x_112 >= 1
 constraint1_2: y_2 + x_2 + x_21 + x_26 + x_27 + x_28 + x_29 + x_32 + x_36
   + x_38 + x_41 + x_42 + x_44 + x_53 + x_60 + x_64 + x_65 + x_68 + x_72
   + x_74 + x_76 + x_78 + x_79 + x_87 + x_88 + x_90 + x_91 + x_98 + x_102
   + x_104 + x_105 + x_106 + x_109 + x_112 + x_115 >= 1
 constraint1_3: y_3 + x_3 + x_22 + x_26 + x_28 + x_31 + x_39 + x_41 + x_54
   + x_56 + x_57 + x_61 + x_63 + x_66 + x_68 + x_69 + x_70 + x_76 + x_81
   + x_85 + x_86 + x_91 + x_97 + x_101 + x_102 + x_104 + x_112 + x_115
   >= 1
 constraint1_4: y_4 + x_4 + x_21 + x_24 + x_25 + x_31 + x_32 + x_33 + x_41
   + x_43 + x_47 + x_48 + x_52 + x_53 + x_56 + x_59 + x_60 + x_68 + x_71
   + x_80 + x_81 + x_82 + x_83 + x_85 + x_95 + x_99 + x_100 + x_101 + x_104
   + x_110 + x_115 >= 1
 constraint1_5: y_5 + x_5 + x_21 + x_24 + x_25 + x_27 + x_29 + x_32 + x_35
   + x_39 + x_42 + x_54 + x_55 + x_57 + x_62 + x_63 + x_65 + x_67 + x_70
   + x_80 + x_82 + x_89 + x_91 + x_93 + x_95 + x_96 + x_99 + x_101 + x_109
   + x_111 + x_115 >= 1
 constraint1_6: y_6 + x_6 + x_21 + x_25 + x_28 + x_29 + x_33 + x_35 + x_40
   + x_41 + x_44 + x_46 + x_48 + x_56 + x_58 + x_62 + x_65 + x_66 + x_67
   + x_68 + x_75 + x_77 + x_78 + x_83 + x_84 + x_86 + x_91 + x_100 + x_103
   + x_105 + x_107 + x_112 >= 1
 constraint1_7: y_7 + x_7 + x_21 + x_24 + x_26 + x_27 + x_28 + x_32 + x_33
   + x_36 + x_40 + x_44 + x_46 + x_47 + x_49 + x_51 + x_57 + x_61 + x_67
   + x_68 + x_70 + x_71 + x_76 + x_77 + x_79 + x_82 + x_86 + x_87 + x_88
   + x_89 + x_90 + x_93 + x_94 + x_103 + x_104 + x_105 + x_106 + x_108
   + x_110 + x_115 >= 1
 constraint1_8: y_8 + x_8 + x_21 + x_26 + x_27 + x_29 + x_30 + x_34 + x_35
   + x_38 + x_39 + x_43 + x_47 + x_49 + x_57 + x_60 + x_61 + x_62 + x_69
   + x_71 + x_72 + x_81 + x_82 + x_83 + x_87 + x_89 + x_92 + x_97 + x_98
   + x_99 + x_100 + x_103 + x_113 + x_114 + x_115 >= 1
 constraint1_9: y_9 + x_9 + x_21 + x_25 + x_26 + x_31 + x_32 + x_33 + x_37
   + x_49 + x_51 + x_54 + x_57 + x_59 + x_60 + x_61 + x_62 + x_65 + x_72
   + x_75 + x_76 + x_80 + x_81 + x_88 + x_89 + x_95 + x_100 + x_101 + x_102
   + x_105 + x_108 + x_109 + x_110 + x_114 >= 1
 constraint1_10: y_10 + x_10 + x_22 + x_24 + x_26 + x_30 + x_33 + x_37
   + x_42 + x_44 + x_45 + x_48 + x_49 + x_50 + x_53 + x_58 + x_59 + x_60
   + x_61 + x_63 + x_64 + x_70 + x_81 + x_84 + x_87 + x_89 + x_90 + x_96
   + x_97 + x_100 + x_103 + x_106 + x_108 + x_110 + x_115 >= 1
 constraint1_11: y_11 + x_11 + x_21 + x_24 + x_26 + x_27 + x_29 + x_32
   + x_34 + x_38 + x_41 + x_43 + x_44 + x_45 + x_46 + x_47 + x_48 + x_53
   + x_59 + x_62 + x_63 + x_70 + x_75 + x_79 + x_80 + x_85 + x_87 + x_88
   + x_89 + x_91 + x_94 + x_96 + x_98 + x_100 + x_101 + x_112 + x_113 >= 1
 constraint1_12: y_12 + x_12 + x_23 + x_25 + x_27 + x_31 + x_33 + x_34
   + x_40 + x_41 + x_43 + x_45 + x_46 + x_50 + x_55 + x_57 + x_58 + x_61
   + x_73 + x_74 + x_75 + x_77 + x_78 + x_87 + x_92 + x_95 + x_98 + x_103
   + x_104 + x_106 + x_111 + x_114 >= 1
 constraint1_13: y_13 + x_13 + x_21 + x_23 + x_27 + x_28 + x_29 + x_30
   + x_37 + x_46 + x_47 + x_52 + x_58 + x_60 + x_64 + x_65 + x_67 + x_69
   + x_75 + x_76 + x_79 + x_84 + x_85 + x_87 + x_92 + x_95 + x_97 + x_98
   + x_103 + x_104 + x_107 + x_112 + x_113 >= 1
 constraint1_14: y_14 + x_14 + x_21 + x_25 + x_28 + x_34 + x_38 + x_40
   + x_42 + x_43 + x_45 + x_48 + x_49 + x_51 + x_52 + x_53 + x_54 + x_59
   + x_60 + x_61 + x_62 + x_67 + x_68 + x_70 + x_72 + x_73 + x_77 + x_78
   + x_83 + x_85 + x_87 + x_91 + x_92 + x_93 + x_94 + x_99 + x_107 + x_112
   + x_113 + x_115 >= 1
 constraint1_15: y_15 + x_15 + x_23 + x_25 + x_27 + x_30 + x_31 + x_36
   + x_50 + x_54 + x_56 + x_62 + x_65 + x_73 + x_74 + x_75 + x_76 + x_79
   + x_80 + x_81 + x_82 + x_83 + x_84 + x_85 + x_88 + x_89 + x_90 + x_91
   + x_93 + x_94 + x_100 + x_101 + x_102 + x_105 + x_106 + x_111 + x_114
   >= 1
 constraint1_16: y_16 + x_16 + x_22 + x_32 + x_36 + x_38 + x_39 + x_40
   + x_41 + x_46 + x_47 + x_49 + x_50 + x_52 + x_57 + x_63 + x_66 + x_69
   + x_71 + x_72 + x_75 + x_77 + x_78 + x_83 + x_85 + x_89 + x_92 + x_95
   + x_98 + x_102 + x_105 + x_108 + x_110 >= 1
 constraint1_17: y_17 + x_17 + x_22 + x_29 + x_34 + x_36 + x_39 + x_42
   + x_43 + x_45 + x_47 + x_48 + x_51 + x_53 + x_58 + x_62 + x_64 + x_67
   + x_70 + x_71 + x_72 + x_76 + x_77 + x_78 + x_79 + x_86 + x_88 + x_90
   + x_95 + x_99 + x_102 + x_104 + x_105 + x_106 + x_107 + x_109 + x_110
   + x_113 + x_114 >= 1
 constraint1_18: y_18 + x_18 + x_23 + x_26 + x_28 + x_35 + x_36 + x_37
   + x_38 + x_50 + x_55 + x_56 + x_58 + x_59 + x_66 + x_69 + x_71 + x_73
   + x_74 + x_80 + x_82 + x_84 + x_86 + x_93 + x_96 + x_99 + x_108 + x_110
   >= 1
 constraint1_19: y_19 + x_19 + x_24 + x_30 + x_34 + x_35 + x_37 + x_42
   + x_43 + x_44 + x_47 + x_51 + x_52 + x_53 + x_59 + x_60 + x_63 + x_65
   + x_66 + x_69 + x_74 + x_82 + x_94 + x_97 + x_103 + x_109 + x_113
   + x_114 >= 1
 constraint1_20: y_20 + x_20 + x_22 + x_31 + x_35 + x_37 + x_38 + x_40
   + x_44 + x_45 + x_46 + x_54 + x_55 + x_56 + x_64 + x_67 + x_71 + x_72
   + x_73 + x_81 + x_83 + x_84 + x_86 + x_93 + x_96 + x_99 + x_107 + x_111
   + x_113 >= 1
 constraint2: 47 y_1 + 24 y_2 + 41 y_3 + 14 y_4 + 26 y_5 + 23 y_6 + 19 y_7
   + 11 y_8 + 18 y_9 + 33 y_10 + 13 y_11 + 46 y_12 + 20 y_13 + 32 y_14
   + 41 y_15 + 39 y_16 + 36 y_17 + 41 y_18 + 48 y_19 + 40 y_20 <= 200
 constraint3: x_1 + x_2 + x_3 + x_4 + x_5 + x_6 + x_7 + x_8 + x_9 + x_10
   + x_11 + x_12 + x_13 + x_14 + x_15 + x_16 + x_17 + x_18 + x_19 + x_20
   + x_21 + x_22 + x_23 + x_24 + x_25 + x_26 + x_27 + x_28 + x_29 + x_30
   + x_31 + x_32 + x_33 + x_34 + x_35 + x_36 + x_37 + x_38 + x_39 + x_40
   + x_41 + x_42 + x_43 + x_44 + x_45 + x_46 + x_47 + x_48 + x_49 + x_50
   + x_51 + x_52 + x_53 + x_54 + x_55 + x_56 + x_57 + x_58 + x_59 + x_60
   + x_61 + x_62 + x_63 + x_64 + x_65 + x_66 + x_67 + x_68 + x_69 + x_70
   + x_71 + x_72 + x_73 + x_74 + x_75 + x_76 + x_77 + x_78 + x_79 + x_80
   + x_81 + x_82 + x_83 + x_84 + x_85 + x_86 + x_87 + x_88 + x_89 + x_90
   + x_91 + x_92 + x_93 + x_94 + x_95 + x_96 + x_97 + x_98 + x_99 + x_100
   + x_101 + x_102 + x_103 + x_104 + x_105 + x_106 + x_107 + x_108 + x_109
   + x_110 + x_111 + x_112 + x_113 + x_114 + x_115 >= 3
 constraint4: x_1 + x_2 + x_3 + x_4 + x_5 + x_6 + x_7 + x_8 + x_9 + x_10
   + x_11 + x_12 + x_13 + x_14 + x_15 + x_16 + x_17 + x_18 + x_19 + x_20
   + x_21 + x_22 + x_23 + x_24 + x_25 + x_26 + x_27 + x_28 + x_29 + x_30
   + x_31 + x_32 + x_33 + x_34 + x_35 + x_36 + x_37 + x_38 + x_39 + x_40
   + x_41 + x_42 + x_43 + x_44 + x_45 + x_46 + x_47 + x_48 + x_49 + x_50
   + x_51 + x_52 + x_53 + x_54 + x_55 + x_56 + x_57 + x_58 + x_59 + x_60
   + x_61 + x_62 + x_63 + x_64 + x_65 + x_66 + x_67 + x_68 + x_69 + x_70
   + x_71 + x_72 + x_73 + x_74 + x_75 + x_76 + x_77 + x_78 + x_79 + x_80
   + x_81 + x_82 + x_83 + x_84 + x_85 + x_86 + x_87 + x_88 + x_89 + x_90
   + x_91 + x_92 + x_93 + x_94 + x_95 + x_96 + x_97 + x_98 + x_99 + x_100
   + x_101 + x_102 + x_103 + x_104 + x_105 + x_106 + x_107 + x_108 + x_109
   + x_110 + x_111 + x_112 + x_113 + x_114 + x_115 <= 2.147483647e+09
Bounds
 y_1 <= 1
 y_2 <= 1
 y_3 <= 1
 y_4 <= 1
 y_5 <= 1
 y_6 <= 1
 y_7 <= 1
 y_8 <= 1
 y_9 <= 1
 y_10 <= 1
 y_11 <= 1
 y_12 <= 1
 y_13 <= 1
 y_14 <= 1
 y_15 <= 1
 y_16 <= 1
 y_17 <= 1
 y_18 <= 1
 y_19 <= 1
 y_20 <= 1
 x_1 <= 1
 x_2 <= 1
 x_3 <= 1
 x_4 <= 1
 x_5 <= 1
 x_6 <= 1
 x_7 = 0
 x_8 <= 1
 x_9 <= 1
 x_10 = 0
 x_11 <= 1
 x_12 = 0
 x_13 <= 1
 x_14 <= 1
 x_15 = 0
 x_16 = 0
 x_17 <= 1
 x_18 = 0
 x_19 <= 1
 x_20 <= 1
 x_21 = 0
 x_22 = 0
 x_23 = 0
 x_24 <= 1
 x_25 <= 1
 x_26 = 0
 x_27 = 0
 x_28 = 0
 x_29 <= 1
 x_30 = 0
 x_31 <= 1
 x_32 = 0
 x_33 = 0
 x_34 = 0
 x_35 = 0
 x_36 = 0
 x_37 = 0
 x_38 <= 1
 x_39 = 0
 x_40 = 0
 x_41 = 0
 x_42 = 0
 x_43 = 0
 x_44 <= 1
 x_45 = 0
 x_46 = 0
 x_47 = 0
 x_48 = 0
 x_49 = 0
 x_50 = 0
 x_51 = 0
 x_52 = 0
 x_53 = 0
 x_54 = 0
 x_55 = 0
 x_56 = 0
 x_57 = 0
 x_58 = 0
 x_59 = 0
 x_60 = 0
 x_61 = 0
 x_62 = 0
 x_63 = 0
 x_64 = 0
 x_65 = 0
 x_66 <= 1
 x_67 = 0
 x_68 = 0
 x_69 <= 1
 x_70 <= 1
 x_71 = 0
 x_72 = 0
 x_73 = 0
 x_74 = 0
 x_75 = 0
 x_76 = 0
 x_77 = 0
 x_78 = 0
 x_79 = 0
 x_80 = 0
 x_81 = 0
 x_82 = 0
 x_83 = 0
 x_84 = 0
 x_85 = 0
 x_86 = 0
 x_87 = 0
 x_88 = 0
 x_89 = 0
 x_90 = 0
 x_91 = 0
 x_92 = 0
 x_93 = 0
 x_94 = 0
 x_95 = 0
 x_96 = 0
 x_97 = 0
 x_98 = 0
 x_99 = 0
 x_100 = 0
 x_101 = 0
 x_102 = 0
 x_103 = 0
 x_104 = 0
 x_105 = 0
End
